; ./prepared/seahorn/./sv_comp_flat_small/array-examples/standard_copy4_true-unreach-call_ground.c.flat_000.smt2
(set-logic HORN)


(declare-fun |main_1| ( Int Int Int Int Int Int Int Int Int Int Int ) Bool)

(assert
  (forall ( (A Int) (B Int) (C Int) (D Int) (E Int) (F Int) (G Int) (H Int) (I Int) (J Int) (v_10 Int) ) 
    (=>
      (and
        (and true (= 0 v_10))
      )
      (main_1 v_10 A B C D E F G H I J)
    )
  )
)
(assert
  (forall ( (A Int) (B Int) (C Int) (D Int) (E Int) (F Int) (G Int) (H Int) (I Int) (J Int) (K Int) (L Int) (M Int) (N Int) (O Int) (P Int) (Q Bool) (R Int) (S Int) (T Int) (U Int) (V Int) (W Bool) (X Bool) (Y Int) (v_25 Int) (v_26 Int) ) 
    (=>
      (and
        (main_1 v_25 G H I J K L M N O P)
        (and (= 0 v_25)
     (= D U)
     (= C T)
     (= B S)
     (= A R)
     (or (= F Y) (not X) (not Q))
     (or (= Y 0) (not X) (not Q))
     (or (not W) (and Q X))
     (= W true)
     (= E V)
     (= 1 v_26))
      )
      (main_1 v_26 G R V U K T M S O F)
    )
  )
)
(assert
  (forall ( (A Int) (B Int) (C Bool) (D Int) (E Int) (F Int) (G Int) (H Int) (I Int) (J Int) (K Int) (L Int) (M Int) (N Int) (O Bool) (P Int) (Q Int) (R Bool) (S Bool) (v_19 Int) (v_20 Int) ) 
    (=>
      (and
        (main_1 v_19 E F G H I J K L M N)
        (and (= 1 v_19)
     (= B (+ L (* 4 N)))
     (= A (+ F (* 4 N)))
     (= Q (+ 1 N))
     (or (= D P) (not S) (not O))
     (or (= P Q) (not S) (not O))
     (or C (not S) (not O))
     (or (not R) (and O S))
     (= R true)
     (not (= (<= 100000 Q) C))
     (= 1 v_20))
      )
      (main_1 v_20 E F G H I J K L M D)
    )
  )
)
(assert
  (forall ( (A Int) (B Int) (C Int) (D Bool) (E Int) (F Int) (G Int) (H Int) (I Int) (J Int) (K Int) (L Int) (M Int) (N Int) (O Bool) (P Int) (Q Bool) (R Bool) (S Bool) (T Bool) (U Int) (v_21 Int) (v_22 Int) ) 
    (=>
      (and
        (main_1 v_21 E F G H I J K L M N)
        (and (= 1 v_21)
     (= C (+ L (* 4 N)))
     (= B (+ F (* 4 N)))
     (= P (+ 1 N))
     (or (not D) (not O) (not R))
     (or (not T) (not Q) (= A U))
     (or (not T) (not Q) (= U 0))
     (or (not Q) (and O R))
     (or (not S) (and T Q))
     (= S true)
     (not (= (<= 100000 P) D))
     (= 2 v_22))
      )
      (main_1 v_22 E F G H I J K L A N)
    )
  )
)
(assert
  (forall ( (A Int) (B Int) (C Bool) (D Int) (E Int) (F Int) (G Int) (H Int) (I Int) (J Int) (K Int) (L Int) (M Int) (N Int) (O Bool) (P Int) (Q Int) (R Bool) (S Bool) (v_19 Int) (v_20 Int) ) 
    (=>
      (and
        (main_1 v_19 E F G H I J K L M N)
        (and (= 2 v_19)
     (= B (+ J (* 4 M)))
     (= A (+ L (* 4 M)))
     (= Q (+ 1 M))
     (or (= D P) (not S) (not O))
     (or (= P Q) (not S) (not O))
     (or C (not S) (not O))
     (or (not R) (and O S))
     (= R true)
     (not (= (<= 100000 Q) C))
     (= 2 v_20))
      )
      (main_1 v_20 E F G H I J K L D N)
    )
  )
)
(assert
  (forall ( (A Int) (B Int) (C Int) (D Bool) (E Int) (F Int) (G Int) (H Int) (I Int) (J Int) (K Int) (L Int) (M Int) (N Int) (O Bool) (P Int) (Q Bool) (R Bool) (S Bool) (T Bool) (U Int) (v_21 Int) (v_22 Int) ) 
    (=>
      (and
        (main_1 v_21 E F G H I J K L M N)
        (and (= 2 v_21)
     (= C (+ J (* 4 M)))
     (= B (+ L (* 4 M)))
     (= P (+ 1 M))
     (or (not D) (not O) (not R))
     (or (not T) (not Q) (= A U))
     (or (not T) (not Q) (= U 0))
     (or (not Q) (and O R))
     (or (not S) (and T Q))
     (= S true)
     (not (= (<= 100000 P) D))
     (= 3 v_22))
      )
      (main_1 v_22 E F G H I J A L M N)
    )
  )
)
(assert
  (forall ( (A Int) (B Int) (C Bool) (D Int) (E Int) (F Int) (G Int) (H Int) (I Int) (J Int) (K Int) (L Int) (M Int) (N Int) (O Bool) (P Int) (Q Int) (R Bool) (S Bool) (v_19 Int) (v_20 Int) ) 
    (=>
      (and
        (main_1 v_19 E F G H I J K L M N)
        (and (= 3 v_19)
     (= B (+ H (* 4 K)))
     (= A (+ J (* 4 K)))
     (= Q (+ 1 K))
     (or (= D P) (not S) (not O))
     (or (= P Q) (not S) (not O))
     (or C (not S) (not O))
     (or (not R) (and O S))
     (= R true)
     (not (= (<= 100000 Q) C))
     (= 3 v_20))
      )
      (main_1 v_20 E F G H I J D L M N)
    )
  )
)
(assert
  (forall ( (A Int) (B Int) (C Int) (D Bool) (E Int) (F Int) (G Int) (H Int) (I Int) (J Int) (K Int) (L Int) (M Int) (N Int) (O Bool) (P Int) (Q Bool) (R Bool) (S Bool) (T Bool) (U Int) (v_21 Int) (v_22 Int) ) 
    (=>
      (and
        (main_1 v_21 E F G H I J K L M N)
        (and (= 3 v_21)
     (= C (+ H (* 4 K)))
     (= B (+ J (* 4 K)))
     (= P (+ 1 K))
     (or (not D) (not O) (not R))
     (or (not T) (not Q) (= A U))
     (or (not T) (not Q) (= U 0))
     (or (not Q) (and O R))
     (or (not S) (and T Q))
     (= S true)
     (not (= (<= 100000 P) D))
     (= 4 v_22))
      )
      (main_1 v_22 E F G H A J K L M N)
    )
  )
)
(assert
  (forall ( (A Int) (B Int) (C Bool) (D Int) (E Int) (F Int) (G Int) (H Int) (I Int) (J Int) (K Int) (L Int) (M Int) (N Int) (O Bool) (P Int) (Q Int) (R Bool) (S Bool) (v_19 Int) (v_20 Int) ) 
    (=>
      (and
        (main_1 v_19 E F G H I J K L M N)
        (and (= 4 v_19)
     (= B (+ G (* 4 I)))
     (= A (+ H (* 4 I)))
     (= Q (+ 1 I))
     (or (= D P) (not S) (not O))
     (or (= P Q) (not S) (not O))
     (or C (not S) (not O))
     (or (not R) (and O S))
     (= R true)
     (not (= (<= 100000 Q) C))
     (= 4 v_20))
      )
      (main_1 v_20 E F G H D J K L M N)
    )
  )
)
(assert
  (forall ( (A Int) (B Int) (C Int) (D Bool) (E Int) (F Int) (G Int) (H Int) (I Int) (J Int) (K Int) (L Int) (M Int) (N Int) (O Bool) (P Int) (Q Bool) (R Bool) (S Bool) (T Bool) (U Int) (v_21 Int) (v_22 Int) ) 
    (=>
      (and
        (main_1 v_21 E F G H I J K L M N)
        (and (= 4 v_21)
     (= C (+ G (* 4 I)))
     (= B (+ H (* 4 I)))
     (= P (+ 1 I))
     (or (not D) (not O) (not R))
     (or (not T) (not Q) (= A U))
     (or (not T) (not Q) (= U 0))
     (or (not Q) (and O R))
     (or (not S) (and T Q))
     (= S true)
     (not (= (<= 100000 P) D))
     (= 5 v_22))
      )
      (main_1 v_22 A F G H I J K L M N)
    )
  )
)
(assert
  (forall ( (A Bool) (B Int) (C Int) (D Int) (E Int) (F Bool) (G Bool) (H Int) (I Int) (J Int) (K Int) (L Int) (M Int) (N Int) (O Int) (P Int) (Q Int) (R Int) (S Bool) (T Int) (U Int) (V Bool) (W Bool) (v_23 Int) (v_24 Int) ) 
    (=>
      (and
        (main_1 v_23 I J K L M N O P Q R)
        (and (= 5 v_23)
     (= F (= C E))
     (not (= F G))
     (= D (+ K (* 4 I)))
     (= B (+ J (* 4 I)))
     (= U (+ 1 I))
     (or (= H T) (not W) (not S))
     (or (= T U) (not W) (not S))
     (or (not G) (not W) (not S))
     (or (not V) (and S W))
     (= A true)
     (= V true)
     (not (= (<= 100000 I) A))
     (= 5 v_24))
      )
      (main_1 v_24 H J K L M N O P Q R)
    )
  )
)
(assert
  (forall ( (A Bool) (B Int) (C Int) (D Int) (E Int) (F Bool) (G Bool) (H Int) (I Int) (J Int) (K Int) (L Int) (M Int) (N Int) (O Int) (P Int) (Q Int) (R Bool) (S Int) (T Bool) (U Bool) (v_21 Int) (v_22 Int) ) 
    (=>
      (and
        (main_1 v_21 H I J K L M N O P Q)
        (and (= 5 v_21)
     (= F (= C E))
     (not (= F G))
     (= D (+ J (* 4 H)))
     (= B (+ I (* 4 H)))
     (= S (+ 1 H))
     (or (not U) (not R) G)
     (or (not T) (and U R))
     (= A true)
     (= T true)
     (not (= (<= 100000 H) A))
     (= 6 v_22))
      )
      (main_1 v_22 H I J K L M N O P Q)
    )
  )
)
(assert
  (forall ( (A Int) (B Int) (C Int) (D Int) (E Int) (F Int) (G Int) (H Int) (I Int) (J Int) (v_10 Int) ) 
    (=>
      (and
        (main_1 v_10 A B C D E F G H I J)
        (= 6 v_10)
      )
      false
    )
  )
)

(check-sat)
(exit)
